instances/A-n6-k2-m3-b1ampl_.txt
set K:= 1	2;
set C_H:= 1;
set C_S:= 2	3;
set C_F:= 4	5;
set M:= 6	7	8	9	10	11;
set L_B:= 12;
set A1:=
(0,*) 1 4 5 6 7 8 9 10 11 12 13
(1,*) 0 4 5 6 7 8 9 10 11 12 13
(4,*) 0 1 5 6 7 8 9 10 11 12 13
(5,*) 0 1 4 6 7 8 9 10 11 12 13
(6,*) 0 1 4 5 7 8 9 10 11 12 13
(7,*) 0 1 4 5 6 8 9 10 11 12 13
(8,*) 0 1 4 5 6 7 9 10 11 12 13
(9,*) 0 1 4 5 6 7 8 10 11 12 13
(10,*) 0 1 4 5 6 7 8 9 11 12 13
(11,*) 0 1 4 5 6 7 8 9 10 12 13
(12,*) 0 1 4 5 6 7 8 9 10 11 13
(13,*) 0 1 4 5 6 7 8 9 10 11 12
;
set A2:=
(6,*) 7
(7,*) 6
(8,*) 9
(9,*) 8
(10,*) 11
(11,*) 10
;
param BigM:=99999;
param n:= 2;
param d:=
1	13
2	23
3	12
4	12
5	10
;
param Q:=100;
param w:=
[6,*] 7 1
[7,*] 6 1
[8,*] 9 1
[9,*] 8 1
[10,*] 11 1
[11,*] 10 1
;
param V:=
[6,*] 7 89
[7,*] 6 89
[8,*] 9 93
[9,*] 8 93
[10,*] 11 97
[11,*] 10 97
;
param e:
	6	7	8	9	10	11	12:=
2		1		0		0		1		0		0		1	
3		1		0		0		1		1		0		0	
4		0		1		0		0		0		1		0	
5		1		0		0		1		0		0		1	
;
param p:=
1	1
2	1
;
param G:=
6	89
7	72
8	72
9	93
10	97
11	85
12	78
;
param s:=
0	0
1	10
4	10
5	10
6	10
7	10
8	10
9	10
10	10
11	10
12	10
;
param t:
	0	1	2	3	4	5	6	7	8	9	10	11	12	13:=
0	0.0	11.66	78.23	17.0	101.83	69.35	27.29	102.07	80.01	70.11	15.52	80.52	73.16	0.0
1	11.66	0.0	69.05	9.22	99.81	60.42	19.72	100.69	86.7	60.83	11.18	84.59	64.43	11.66
2	78.23	69.05	0.0	61.29	67.36	9.06	51.04	71.85	108.25	8.25	63.03	92.46	6.46	78.23
3	17.0	9.22	61.29	0.0	90.8	52.47	10.77	91.81	82.0	53.15	4.47	78.06	56.34	17.0
4	101.83	99.81	67.36	90.8	0.0	66.03	81.84	5.66	72.34	69.01	88.87	51.24	63.56	101.83
5	69.35	60.42	9.06	52.47	66.03	0.0	42.11	70.03	101.14	3.16	54.08	86.27	4.31	69.35
6	27.29	19.72	51.04	10.77	81.84	42.11	0.0	83.24	80.99	43.0	12.0	74.33	45.87	27.29
7	102.07	100.69	71.85	91.81	5.66	70.03	83.24	0.0	68.07	73.06	89.63	47.01	67.77	102.07
8	80.01	86.7	108.25	82.0	72.34	101.14	80.99	68.07	0.0	104.0	77.67	21.1	101.91	80.01
9	70.11	60.83	8.25	53.15	69.01	3.16	43.0	73.06	104.0	0.0	55.0	89.31	6.02	70.11
10	15.52	11.18	63.03	4.47	88.87	54.08	12.0	89.63	77.67	55.0	0.0	74.17	57.8	15.52
11	80.52	84.59	92.46	78.06	51.24	86.27	74.33	47.01	21.1	89.31	74.17	0.0	86.37	80.52
12	73.16	64.43	6.46	56.34	63.56	4.31	45.87	67.77	101.91	6.02	57.8	86.37	0.0	73.16
;
